
Gurobi 11.0.2 (win64) logging started Sun Aug 18 12:13:16 2024

Set parameter LogFile to value "D:\Documenti\Scuola\Laurea magistrale unibs\laurea-unibs-mkfsp\output\2024-08-18T10_03_15.889499\logs\instance02_bucket2.log"
Set parameter TimeLimit to value 350
Set parameter MIPGap to value 0
Gurobi Optimizer version 11.0.2 build v11.0.2rc0 (win64 - Windows 10.0 (19045.2))

CPU model: Intel(R) Core(TM) i5-4670 CPU @ 3.40GHz, instruction set [SSE2|AVX|AVX2]
Thread count: 4 physical cores, 4 logical processors, using up to 4 threads

Optimize a model with 645 rows, 2588 columns and 27780 nonzeros
Model fingerprint: 0x836882c4
Variable types: 0 continuous, 2588 integer (2559 binary)
Coefficient statistics:
  Matrix range     [1e+00, 8e+03]
  Objective range  [6e+02, 8e+03]
  Bounds range     [1e+00, 1e+00]
  RHS range        [1e+00, 1e+05]
Found heuristic solution: objective 120129.00000
Presolve time: 0.04s
Presolved: 645 rows, 2588 columns, 27780 nonzeros
Variable types: 0 continuous, 2588 integer (2559 binary)
Found heuristic solution: objective 131370.00000

Root relaxation: objective 1.731630e+05, 410 iterations, 0.01 seconds (0.00 work units)

    Nodes    |    Current Node    |     Objective Bounds      |     Work
 Expl Unexpl |  Obj  Depth IntInf | Incumbent    BestBd   Gap | It/Node Time

H    0     0                    173163.00000 173163.000  0.00%     -    0s
     0     0 173163.000    0  172 173163.000 173163.000  0.00%     -    0s

Explored 1 nodes (410 simplex iterations) in 0.05 seconds (0.04 work units)
Thread count was 4 (of 4 available processors)

Solution count 3: 173163 131370 120129 

Optimal solution found (tolerance 0.00e+00)
Best objective 1.731630000000e+05, best bound 1.731630000000e+05, gap 0.0000%
